GLPSOL--GLPK LP/MIP Solver 5.0
Parameter(s) specified in the command line:
 --lp ../modeles/4_209.lp --log 4_209.log
Reading problem data from '../modeles/4_209.lp'...
853 rows, 1680 columns, 5872 non-zeros
836 integer variables, all of which are binary
2543 lines were read
GLPK Integer Optimizer 5.0
853 rows, 1680 columns, 5872 non-zeros
836 integer variables, all of which are binary
Preprocessing...
824 constraint coefficient(s) were reduced
853 rows, 1676 columns, 5868 non-zeros
836 integer variables, all of which are binary
Scaling...
 A: min|aij| =  9.157e-05  max|aij| =  4.000e+00  ratio =  4.368e+04
GM: min|aij| =  6.917e-02  max|aij| =  1.446e+01  ratio =  2.090e+02
EQ: min|aij| =  4.785e-03  max|aij| =  1.000e+00  ratio =  2.090e+02
2N: min|aij| =  3.906e-03  max|aij| =  1.772e+00  ratio =  4.537e+02
Constructing initial basis...
Size of triangular part is 853
Solving LP relaxation...
GLPK Simplex Optimizer 5.0
853 rows, 1676 columns, 5868 non-zeros
      0: obj =   8.000000000e+00 inf =   1.950e+01 (9)
     59: obj =   4.998282967e-01 inf =   0.000e+00 (0)
*   218: obj =  -1.999654950e+00 inf =   2.841e-16 (0)
OPTIMAL LP SOLUTION FOUND
Integer optimization begins...
Long-step dual simplex will be used
+   218: mip =     not found yet >=              -inf        (1; 0)
+   573: >>>>>  -1.999654950e+00 >=  -1.999654950e+00 < 0.1% (353; 0)
+   573: mip =  -1.999654950e+00 >=     tree is empty   0.0% (0; 705)
INTEGER OPTIMAL SOLUTION FOUND
Time used:   0.4 secs
Memory used: 2.5 Mb (2652634 bytes)
